810637
1,7,210,183,20,117,36,229,133,112,155,72,63,32,118,49,67,39,74,157,83,135,162,207,147,127,163,178,31,199,98,42,160,113,73,209,126,70,86,119,193,195,84,29,95,57,76,11,139,58,59,221,52,213,93,168,45,212,104,203,6,38,224,33,129,153,217,21,4,228,109,90,170,142,171,150,186,88,146,12,187,103,230,172,204,2,82,158,180,121,77,222,41,128,106,141,219,66,190,99,202,105,216,100,53,92,175,54,18,56,24,115,149,143,197,174,164,154,65,200,198,10,201,110,14,165,194,97,120,8,15,137,138,3,185,60,189,16,208,214,46,125,227,19,134,111,48,225,13,220,44,5,156,145,144,26,91,96,166,9,68,101,184,116,161,107,89,196,179,192,37,34,205,75,215,78,28,50,108,35,87,94,151,55,130,81,40,169,27,62,102,22,211,64,30,47,17,176,223,79,167,85,123,25,61,182,80,132,188,181,136,206,218,124,131,173,148,114,51,177,226,69,23,159,122,152,191,43,71,140,1